NAME : local_1
TYPE : ATSP
DIMENSION : 8
EDGE_WEIGHT_TYPE : EXPLICIT
EDGE_WEIGHT_FORMAT : FULL_MATRIX
EDGE_WEIGHT_SECTION
0 618 789 569 733 10000000 834 519 
0 0 10000000 10000000 10000000 813 10000000 983 
0 10000000 0 316 258 10000000 553 321 
0 10000000 316 0 212 10000000 730 324 
0 10000000 258 212 0 10000000 739 380 
0 813 10000000 10000000 10000000 0 10000000 10000000 
0 10000000 553 730 739 10000000 0 435 
0 10000000 10000000 10000000 10000000 10000000 10000000 0 
EOF